34 8
5 558
5 59
5 409
1 711
2 552
4 685
5 319
5 714
3 849
4 953
5 733
5 193
3 981
3 428
7 32
7 797
6 153
7 700
4 92
3 845
5 746
4 527
4 101
3 16
2 333
5 891
2 778
2 699
2 110
2 968
2 40
2 677
6 38
6 533
